% The Rogo problem Intro 5
% 
% http://www.rogopuzzle.co.nz/paper-rogos/intro-rogo-5/
%
rows = 5;
cols = 8;
max_steps = 16;
best = 21;
problem = array2d(1..rows, 1..cols, 
[
 %1 2 3 4 5 6 7,8,
  W,W,1,B,B,2,W,W, % 1
  W,5,W,W,W,W,2,W, % 2
  1,W,W,3,2,W,W,5, % 3
  W,4,W,W,W,W,1,W, % 4
  B,W,1,W,W,4,W,B, % 5

]);
